c Sudoku solution
p cnf 729 0
231 0
252 0
266 0
297 0
334 0
355 0
369 0
376 0
427 0
451 0
462 0
548 0
557 0
589 0
632 0
665 0
687 0
712 0
837 0
861 0
896 0
486 0
916 0
964 0
563 0
975 0
777 0
768 0
947 0
842 0
745 0
756 0
646 0
167 0
158 0
317 0
449 0
654 0
993 0
982 0
921 0
959 0
853 0
938 0
739 0
723 0
879 0
888 0
199 0
113 0
433 0
673 0
535 0
526 0
495 0
824 0
815 0
136 0
794 0
781 0
383 0
243 0
341 0
144 0
171 0
392 0
278 0
122 0
328 0
225 0
219 0
185 0
284 0
629 0
572 0
474 0
591 0
698 0
418 0
514 0
611 0
